22419 26652
59527 31536
2213 44412
3198 51244
45569 38882
51994 1313
42419 42244
18792 23351
13082 41996
17930 6167
8919 13334
28874 22202
25170 36772
46790 45729
60142 18861
10080 34294
4756 54601
22032 45001
59672 59000
17122 61652
22820 44580
45557 47206
54653 62703
4182 19471
54730 51284
54011 8255
39889 40397
53321 15364
65377 9027
438 16941
